# avogadro generated ORCA input file 
# Basic Mode
# 
! RHF SP def2-SVP 

* xyz 0 1
   O       -1.15573       -0.41817        0.22424
   N       -1.10543       -1.48815       -0.33970
   O       -0.74420       -1.66790       -1.49017
   C       -1.50070       -2.76475        0.37541
   H       -2.29110       -3.21175       -0.21739
   H       -0.61057       -3.38464        0.39473
  Br       -2.12753       -2.49116        2.17538
*

